n = 10; 

m=14; 


3	21	11	77	57	13	76	11	55	63
92	98	92	95	98	99	98	98	99	99
40	32	45	26	39	34	41	10	62	28
44	63	25	52	73	65	71	63	3	68
10	12	42	51	45	66	75	41	61	76
1	27	71	58	8	60	5	30	26	73
54	73	13	15	57	76	65	33	17	19
53	45	50	32	3	48	61	55	77	74
25	27	69	17	44	77	69	47	61	53
24	64	32	20	79	9	47	50	45	24
58	79	4	40	75	77	46	12	59	34
58	1	61	31	80	44	49	70	49	34
72	13	32	73	28	3	11	49	25	69
40	32	45	26	39	34	41	10	62	28
 



 

 
